Total weight: 1411.0869865243671
Route 1: 0 27 69 30 20 32 70 0 
Route 2: 0 40 21 73 22 75 56 74 72 0 
Route 3: 0 28 26 53 0 
Route 4: 0 63 62 11 90 10 31 0 
Route 5: 0 97 42 15 57 2 58 0 
Route 6: 0 6 96 95 94 13 0 
Route 7: 0 76 29 79 3 68 77 0 
Route 8: 0 18 45 8 46 83 0 
Route 9: 0 52 82 48 19 7 89 0 
Route 10: 0 93 100 91 61 84 5 60 0 
Route 11: 0 41 23 54 24 80 0 
Route 12: 0 66 65 71 78 81 0 
Route 13: 0 1 33 51 9 35 34 50 0 
Route 14: 0 99 59 37 98 85 16 86 17 0 
Route 15: 0 92 14 44 38 43 87 0 
Route 16: 0 88 64 49 36 47 0 
Route 17: 0 12 39 67 55 4 25 0 
